certificates/rado_a10_c174_N25.cnf
c Rad2 upper bound instance: x1 + 10*x2 - x3 = 174, interval [1,25]
p cnf 25 122
1 7 18 0
-1 -7 -18 0
1 17 19 0
-1 -17 -19 0
2 8 18 0
-2 -8 -18 0
2 18 19 0
-2 -18 -19 0
3 9 18 0
-3 -9 -18 0
3 19 0
-3 -19 0
4 10 18 0
-4 -10 -18 0
4 19 20 0
-4 -19 -20 0
1 5 17 0
-1 -5 -17 0
5 11 18 0
-5 -11 -18 0
5 19 21 0
-5 -19 -21 0
2 6 17 0
-2 -6 -17 0
6 12 18 0
-6 -12 -18 0
6 19 22 0
-6 -19 -22 0
3 7 17 0
-3 -7 -17 0
7 13 18 0
-7 -13 -18 0
7 19 23 0
-7 -19 -23 0
4 8 17 0
-4 -8 -17 0
8 14 18 0
-8 -14 -18 0
8 19 24 0
-8 -19 -24 0
5 9 17 0
-5 -9 -17 0
9 15 18 0
-9 -15 -18 0
9 19 25 0
-9 -19 -25 0
6 10 17 0
-6 -10 -17 0
10 16 18 0
-10 -16 -18 0
7 11 17 0
-7 -11 -17 0
11 17 18 0
-11 -17 -18 0
8 12 17 0
-8 -12 -17 0
12 18 0
-12 -18 0
9 13 17 0
-9 -13 -17 0
13 18 19 0
-13 -18 -19 0
10 14 17 0
-10 -14 -17 0
14 18 20 0
-14 -18 -20 0
1 15 16 0
-1 -15 -16 0
11 15 17 0
-11 -15 -17 0
15 18 21 0
-15 -18 -21 0
2 16 0
-2 -16 0
12 16 17 0
-12 -16 -17 0
16 18 22 0
-16 -18 -22 0
3 16 17 0
-3 -16 -17 0
13 17 0
-13 -17 0
17 18 23 0
-17 -18 -23 0
4 16 18 0
-4 -16 -18 0
14 17 18 0
-14 -17 -18 0
18 24 0
-18 -24 0
5 16 19 0
-5 -16 -19 0
15 17 19 0
-15 -17 -19 0
18 19 25 0
-18 -19 -25 0
6 16 20 0
-6 -16 -20 0
16 17 20 0
-16 -17 -20 0
7 16 21 0
-7 -16 -21 0
17 21 0
-17 -21 0
8 16 22 0
-8 -16 -22 0
17 18 22 0
-17 -18 -22 0
9 16 23 0
-9 -16 -23 0
17 19 23 0
-17 -19 -23 0
10 16 24 0
-10 -16 -24 0
17 20 24 0
-17 -20 -24 0
1 15 25 0
-1 -15 -25 0
11 16 25 0
-11 -16 -25 0
17 21 25 0
-17 -21 -25 0
