certificates/rado_a10_c174_N25.drat
17 18 -25 0
18 -25 0
d 17 18 -25 0
-25 0
19 0
-3 0
-17 0
16 0
7 0
13 0
21 0
-2 0
-5 0
-23 0
0
